80 
300 
10.5 14.4 0 0
11.2 14.1 0 -114
18 15.9 10 -18
18.3 13.3 10 -11
16.5 9.3 10 -14
15.4 11 10 -16
14.9 13.2 -5 -105
16.3 13.3 5 -17
16.4 17.8 -5 -123
15 17.9 -5 -135
16.1 19.6 -10 -91
15.7 20.6 10 -16
13.2 20.1 -10 -65
14.3 15.3 5 -24
14 5.1 -10 -105
11.4 6.7 -15 -113
8.3 5 -15 -71
7.9 9.8 10 -10
11.4 12 5 -29
11.2 17.6 -5 -64
10.1 18.7 5 -25
11.7 20.3 -10 -69
10.2 22.1 -10 -96
9.7 23.8 10 -16
10.1 26.4 -15 -80
7.4 24 -15 -81
8.2 19.9 15 -25
8.7 17.7 10 -14
8.9 13.6 10 -21
5.6 11.1 -10 -123
4.9 18.9 10 -10
7.3 18.8 10 -27
